c 
p cnf 10 40
3 -5 -7 1 10 0
8 -6 3 -7 0
9 0
-6 -5 -1 8 -9 0
4 1 8 -2 0
8 -9 0
-10 -9 -8 0
-9 1 3 -2 -10 0
-5 4 -6 0
1 9 5 0
8 0
7 8 2 10 -6 0
-7 1 6 -10 -5 0
-9 -6 -5 0
-10 4 -8 2 0
9 10 6 0
-2 -7 -8 4 10 0
8 0
-6 -9 -5 -7 0
3 2 6 0
-10 5 -6 1 0
-6 10 -7 0
-9 -4 0
-10 2 -8 0
5 7 8 -10 0
9 5 -4 8 -6 0
-10 0
-10 7 4 5 1 0
5 2 9 0
10 3 -7 0
5 9 -3 0
2 1 4 7 0
10 8 0
3 5 1 8 0
-2 3 -10 -8 0
-2 4 -6 -8 10 0
7 -4 -1 10 -3 0
9 0
9 8 4 -2 -6 0
5 8 0
